27	3

10	10	10	

0	0	0	0	3	2	3	4	
2	3	5	2	2	7	8	
3	5	4	3	2	6	7	
2	5	2	2	2	5	6	
2	4	1	4	2	9	11	
3	5	5	4	2	9	10	
4	3	5	2	2	11	12	
1	2	4	4	2	9	11	
1	3	2	2	2	15	16	
6	3	2	4	1	13	
2	3	3	2	1	13	
4	4	1	4	1	14	
7	1	4	4	1	18	
2	2	2	2	3	17	19	20	
6	5	5	4	1	17	
2	1	5	4	1	17	
5	4	5	4	1	21	
3	3	2	3	2	23	24	
8	5	3	3	1	22	
1	2	4	6	1	23	
3	1	6	2	1	25	
5	3	2	1	1	25	
7	1	0	4	1	25	
1	2	2	1	2	25	26	
4	0	1	3	1	27	
1	2	2	2	1	27	
0	0	0	0	0	
